85557.85
11 18 16 10 9 17 20 22 21 19 15 8 7 13 6 5 14 12 222 4 3 221 220 2 1 219 0 225 218 216 217 224 223 215 178 182 181 180 183 184 185 187 189 191 193 195 197 198 196 194 192 190 188 186 113 114 115 116 117 118 120 119 121 122 127 126 123 124 125 128 179 129 130 131 177 132 163 165 167 169 171 173 175 176 174 172 170 168 166 164 162 133 134 135 136 137 138 140 139 141 142 146 147 143 144 145 161 160 157 159 158 156 148 149 150 151 152 153 154 155 199 201 207 208 209 210 200 202 203 204 211 212 213 205 206 214 23 30 32 24 25 26 27 28 29 36 34 35 33 31 37 38 39 40 42 41 43 44 45 46 47 48 49 50 51 52 53 54 55 56 57 58 59 60 61 62 63 64 65 66 67 68 69 70 71 72 73 74 75 76 77 78 79 80 81 82 83 84 85 86 87 88 89 90 91 92 93 94 95 96 97 98 99 100 101 102 103 105 107 109 111 112 110 108 106 104